objective value:                                 3781
delta[0,0]*                                        10 	(obj:344)
delta[1,1]*                                         1 	(obj:341)
mu[0,0,30]*                         0.296268053712741 	(obj:0)
mu[0,0,34]*                          2.63628141144259 	(obj:0)
mu[1,1,35]*                         0.378946796555951 	(obj:0)
mu[0,0,40]*                           4.5806836211785 	(obj:0)
mu[0,0,42]*                          1.25628919566286 	(obj:0)
mu[0,0,44]*                          0.42633007511918 	(obj:0)
mu[0,0,50]*                         0.582416324520179 	(obj:0)
mu[0,0,52]*                          0.22173131836395 	(obj:0)
mu[1,1,53]*                         0.609692139332079 	(obj:0)
